222 5
10 10 10 10 10 

0 0 0 0 0 0 2 2 54 
0 0 0 0 0 0 3 3 5 6 
6 1 5 8 4 3 3 8 7 4 
6 7 5 7 10 9 6 17 13 12 11 10 9 
2 9 10 6 9 3 3 12 9 7 
3 8 6 7 10 10 2 9 7 
4 6 9 7 8 6 4 17 14 11 10 
1 5 8 7 6 7 3 17 10 9 
7 5 10 10 3 10 3 19 16 14 
10 9 3 10 9 8 3 19 18 15 
9 8 6 6 6 6 3 20 19 16 
8 10 5 8 6 6 4 23 21 20 18 
8 8 6 8 3 4 4 25 23 20 19 
2 5 7 10 6 10 3 21 20 18 
9 7 9 7 8 9 3 23 21 20 
5 7 10 10 9 10 2 23 18 
2 10 5 8 4 10 2 20 18 
6 10 6 10 10 10 3 25 24 22 
6 8 10 9 10 5 1 21 
2 6 7 10 8 6 2 28 24 
7 5 6 9 8 5 2 26 22 
9 9 10 2 5 7 3 29 28 27 
2 4 6 7 7 7 3 29 28 27 
3 3 4 6 8 4 1 26 
7 4 10 7 6 9 3 32 29 28 
7 10 6 6 7 4 2 29 27 
10 10 6 6 10 8 4 35 33 32 31 
9 4 8 7 6 7 4 35 33 31 30 
6 10 5 9 9 9 3 35 33 30 
4 8 10 6 10 8 2 37 34 
6 9 10 5 6 10 2 37 34 
9 3 8 10 9 7 2 37 34 
8 7 4 5 6 10 1 34 
1 10 4 6 8 7 5 52 51 40 39 36 
9 10 10 9 8 7 4 52 51 40 36 
8 10 10 3 8 10 4 49 41 38 196 
6 8 5 8 10 7 3 51 49 38 
8 8 10 10 9 7 7 50 48 47 46 45 43 42 
6 8 7 5 10 8 6 49 48 47 44 43 42 
8 7 9 10 8 7 4 46 45 44 43 
4 9 10 7 8 5 2 44 42 
2 10 10 10 6 8 1 53 
9 10 10 8 6 10 1 53 
10 7 9 6 6 8 1 53 
3 9 10 9 6 10 1 53 
1 8 6 7 8 4 1 53 
6 7 5 8 8 8 1 53 
5 9 10 7 8 7 1 53 
5 8 8 6 10 10 1 53 
6 9 8 5 10 9 1 53 
9 7 6 8 6 6 1 53 
1 6 8 10 6 10 1 53 
0 0 0 0 0 0 1 222 
0 0 0 0 0 0 5 55 56 58 59 199 
9 0 0 4 0 0 3 64 62 57 
9 0 0 7 0 0 3 62 61 60 
3 0 0 4 0 0 2 61 60 
7 0 0 7 0 0 2 63 60 
8 0 0 10 0 0 1 60 
7 0 0 10 0 0 1 65 
1 0 0 10 0 0 1 65 
6 0 0 7 0 0 1 65 
8 0 0 8 0 0 1 65 
2 0 0 8 0 0 1 65 
0 0 0 0 0 0 2 66 78 
0 0 0 0 0 0 5 67 68 70 75 76 
4 0 2 0 0 0 4 74 73 72 71 
2 0 10 0 0 0 2 74 69 
5 0 10 0 0 0 2 72 71 
3 0 6 0 0 0 2 73 71 
9 0 4 0 0 0 1 77 
7 0 9 0 0 0 1 77 
5 0 10 0 0 0 1 77 
7 0 10 0 0 0 1 77 
8 0 9 0 0 0 1 77 
2 0 5 0 0 0 1 77 
0 0 0 0 0 0 2 120 152 
0 0 0 0 0 0 5 79 83 84 85 89 
3 6 6 0 5 3 3 87 82 80 
7 6 10 0 8 9 2 98 81 
6 9 9 0 3 7 8 118 104 99 94 93 92 88 86 
7 6 9 0 10 9 10 118 107 104 101 97 96 95 94 92 91 
2 9 8 0 2 10 7 107 106 103 99 97 90 87 
8 8 10 0 6 4 6 105 104 94 93 92 86 
9 7 10 0 7 5 4 99 92 91 88 
7 10 8 0 8 7 6 107 106 103 101 97 90 
3 5 10 0 6 10 4 101 98 94 93 
1 9 10 0 7 8 4 106 105 103 96 
3 10 5 0 6 7 4 109 105 104 94 
10 8 2 0 10 7 3 112 111 96 
6 4 9 0 6 8 2 112 93 
1 8 8 0 8 8 3 117 106 100 
2 10 3 0 9 10 3 117 111 100 
4 5 5 0 7 8 3 117 112 100 
4 7 10 0 10 7 2 105 103 
5 10 10 0 9 4 2 117 100 
2 3 7 0 10 5 2 117 100 
7 9 5 0 6 8 2 109 104 
5 6 6 0 9 9 2 111 102 
9 7 4 0 5 8 1 102 
10 6 5 0 10 10 5 117 116 115 113 111 
6 8 10 0 7 8 3 116 110 108 
1 10 9 0 10 8 3 114 113 109 
3 6 7 0 7 10 2 111 108 
2 5 9 0 7 5 2 111 108 
10 8 10 0 8 5 3 114 113 112 
3 6 5 0 10 8 2 113 109 
10 8 10 0 4 10 2 115 113 
5 9 5 0 7 6 2 117 116 
5 10 6 0 7 7 1 114 
4 8 10 0 7 10 1 114 
3 6 8 0 10 6 1 115 
1 7 10 0 10 10 1 119 
2 8 10 0 8 9 1 119 
9 7 6 0 8 6 1 119 
4 10 4 0 8 7 1 119 
7 10 7 0 8 5 1 119 
8 6 5 0 7 9 1 119 
0 0 0 0 0 0 1 222 
0 0 0 0 0 0 6 121 122 123 124 127 150 
10 2 0 1 0 5 4 134 132 131 125 
2 10 0 9 0 10 4 134 128 126 125 
7 9 0 8 0 3 5 149 140 132 129 128 
3 8 0 9 0 8 6 145 141 140 139 132 129 
6 10 0 8 0 6 4 145 140 139 129 
7 6 0 9 0 7 4 146 144 131 130 
2 7 0 6 0 4 5 148 144 135 134 131 
5 5 0 8 0 4 5 145 144 139 138 135 
6 4 0 8 0 10 2 144 130 
3 10 0 6 0 6 3 147 138 135 
5 6 0 7 0 6 3 145 138 136 
5 10 0 6 0 7 2 146 133 
3 8 0 5 0 9 1 135 
2 10 0 10 0 6 2 145 137 
5 7 0 2 0 10 1 136 
9 7 0 7 0 6 1 137 
3 10 0 8 0 10 1 142 
10 7 0 8 0 8 1 143 
7 10 0 9 0 8 1 146 
1 7 0 10 0 9 1 146 
10 3 0 9 0 10 1 144 
6 6 0 7 0 4 1 151 
3 7 0 5 0 10 1 151 
2 10 0 10 0 8 1 151 
3 5 0 6 0 10 1 151 
3 10 0 7 0 8 1 151 
8 6 0 10 0 10 1 151 
4 6 0 10 0 7 1 151 
2 10 0 10 0 10 1 151 
9 9 0 7 0 6 1 151 
0 0 0 0 0 0 1 222 
0 0 0 0 0 0 5 153 154 155 159 162 
4 0 0 0 4 0 3 161 158 157 
8 0 0 0 4 0 2 161 156 
6 0 0 0 10 0 2 161 160 
6 0 0 0 10 0 1 160 
9 0 0 0 7 0 1 160 
10 0 0 0 9 0 1 160 
6 0 0 0 10 0 1 161 
2 0 0 0 7 0 1 163 
7 0 0 0 7 0 1 163 
3 0 0 0 7 0 1 163 
0 0 0 0 0 0 2 164 186 
0 0 0 0 0 0 9 165 166 168 169 170 171 176 177 184 
9 0 3 0 4 0 4 183 182 180 167 
1 0 8 0 9 0 6 182 181 179 175 174 173 
5 0 5 0 6 0 2 179 172 
8 0 5 0 7 0 3 180 179 178 
10 0 10 0 6 0 2 181 173 
2 0 9 0 10 0 2 179 173 
1 0 9 0 10 0 2 174 173 
10 0 7 0 8 0 1 173 
5 0 5 0 7 0 1 178 
10 0 7 0 10 0 1 178 
8 0 9 0 6 0 1 178 
10 0 5 0 6 0 1 180 
3 0 7 0 10 0 1 178 
9 0 10 0 8 0 1 185 
3 0 10 0 5 0 1 185 
4 0 10 0 10 0 1 185 
2 0 9 0 2 0 1 185 
10 0 7 0 10 0 1 185 
4 0 6 0 10 0 1 185 
3 0 9 0 6 0 1 185 
0 0 0 0 0 0 1 222 
0 0 0 0 0 0 4 187 189 190 191 
8 2 0 0 0 0 2 192 188 
4 5 0 0 0 0 3 195 194 193 
1 4 0 0 0 0 2 196 193 
4 10 0 0 0 0 1 192 
5 7 0 0 0 0 1 192 
4 9 0 0 0 0 1 197 
3 10 0 0 0 0 1 197 
3 10 0 0 0 0 1 197 
10 10 0 0 0 0 1 197 
5 8 0 0 0 0 1 197 
0 0 0 0 0 0 2 198 210 
0 0 0 0 0 0 5 199 200 201 204 205 
8 0 2 0 0 0 2 203 202 
8 0 6 0 0 0 2 206 202 
7 0 6 0 0 0 2 208 206 
6 0 9 0 0 0 1 207 
8 0 9 0 0 0 1 206 
8 0 8 0 0 0 1 207 
7 0 10 0 0 0 1 206 
8 0 9 0 0 0 1 209 
1 0 10 0 0 0 1 209 
1 0 6 0 0 0 1 209 
0 0 0 0 0 0 1 222 
0 0 0 0 0 0 4 211 212 213 215 
8 0 0 2 0 0 4 220 219 218 214 
1 0 0 4 0 0 5 220 219 218 217 216 
7 0 0 6 0 0 2 219 214 
1 0 0 9 0 0 2 217 216 
3 0 0 10 0 0 2 218 216 
10 0 0 10 0 0 1 221 
6 0 0 6 0 0 1 221 
9 0 0 10 0 0 1 221 
5 0 0 8 0 0 1 221 
1 0 0 10 0 0 1 221 
0 0 0 0 0 0 1 222 
0 0 0 0 0 0 0 
